
Gurobi 8.0.1 (linux64, Python) logging started Mon Oct  1 13:43:18 2018

Academic license - for non-commercial use only

Gurobi 8.0.1 (linux64, Python) logging started Mon Oct  1 18:47:51 2018

Academic license - for non-commercial use only

Gurobi 8.0.1 (linux64, Python) logging started Mon Oct  1 20:40:45 2018

Academic license - for non-commercial use only

Gurobi 8.0.1 (linux64, Python) logging started Tue Oct  2 18:03:19 2018

Academic license - for non-commercial use only
Warning for adding constraints: zero or small (< 1e-13) coefficients, ignored
Warning for adding constraints: zero or small (< 1e-13) coefficients, ignored
Warning for adding constraints: zero or small (< 1e-13) coefficients, ignored
Warning for adding constraints: zero or small (< 1e-13) coefficients, ignored
Warning for adding constraints: zero or small (< 1e-13) coefficients, ignored
Warning for adding constraints: zero or small (< 1e-13) coefficients, ignored
Warning for adding constraints: zero or small (< 1e-13) coefficients, ignored
Warning for adding constraints: zero or small (< 1e-13) coefficients, ignored
Warning for adding constraints: zero or small (< 1e-13) coefficients, ignored

Gurobi 8.0.1 (linux64, Python) logging started Wed Oct  3 20:20:06 2018

Academic license - for non-commercial use only
